K=5;
N=7;
P=[29 40 38 6 5];
R=[39 36 35 11 8];
A=[2 3 4 2 5];
C=[40 22 9 26 14];
M=[
	[0 39 25 21 15 7 14]
	[39 0 13 21 50 32 42]
	[25 13 0 19 46 43 16]
	[21 21 19 0 16 50 32]
	[15 50 46 16 0 42 4]
	[7 32 43 50 42 0 15]
	[14 42 16 32 4 15 0]
];